50

100 16 301
99 14 347
99 28 305
97 2 354
97 7 308
96 21 294
96 25 329
96 7 343
93 6 323
93 25 323
91 5 275
84 7 271
83 7 344
81 22 333
79 10 254
78 11 278
77 11 326
74 14 280
71 2 332
67 3 307
66 12 235
63 5 299
62 13 283
61 10 337
61 9 352
61 3 270
59 10 280
59 10 280
59 6 253
58 7 354
57 11 337
56 12 318
54 17 298
54 8 359
53 6 192
53 6 351
51 12 162
50 6 201
49 1 344
48 5 238
45 2 164
45 14 357
45 6 222
40 11 347
40 11 319
39 7 177
39 9 256
34 4 149
32 7 209
30 6 315
